data;

param nPaths := 8;
param n := 10;

param Matrix : 
		1 2 3 4 5 6 7 8 9 10 :=
	1	1 1 0 0 0 0 0 0 0 1
	2 	1 1 0 1 0 0 0 0 0 1
	3	1 0 1 0 0 1 0 1 0 1
	4	1 0 1 0 1 0 0 1 0 1
	5	1 0 1 0 0 1 0 1 1 1
	6	1 0 1 0 1 0 0 1 1 1
	7	1 1 0 1 0 0 1 0 0 1
	8	1 1 0 1 0 0 1 0 0 1
	;

param Weight := 
	[1] 3
	[2] 4
	[3] 5
	[4] 5
	[5] 6
	[6] 6
	[7] 5
	[8] 5
	;

end;
